0000000000000000
0110000000000000
0110000000001111
0110000001111100
0010000111000000
0011001100000000
0011001000000000
0011011000000000
0011011000000000
0011011000000000
0001001100000000
0001001111000000
0001100011111111
0001100000000000
0000000000000000
0000000000000000
